&control
calculation = 'relax'
prefix = 'MoS2-V-O'
restart_mode='from_scratch'
nstep=200
forc_conv_thr = 0.01,
pseudo_dir = '../pseudo'
outdir = './'
wfcdir = './'
/
&system
nspin = 1,
ecutwfc = 80,
nat = 36
occupations = 'smearing'
ibrav = 0,  
degauss = 0.01
smearing = 'gaussian'
tot_charge = 0.0
ntyp = 3
ecutrho = 400,
input_dft = "rVV10"
/
&electrons
electron_maxstep = 250,
conv_thr = 1e-06,
mixing_mode = 'local-TF'
mixing_beta = 0.7
/
&ions
ion_dynamics = 'bfgs',
/
&cell
cell_dynamics = 'bfgs',
cell_dofree = '2Dxy'
/

CELL_PARAMETERS angstrom
9.45676  0.0  0.0
0.0  10.9289  0.0
0.0  0.0  24.9999

K_POINTS gamma

ATOMIC_SPECIES
Mo 95.94  Mo_ONCV_PBE-1.0.oncvpsp.upf
S 32.065  s_pbe_v1.4.uspp.F.UPF
H 1.00794 H_ONCV_PBE-1.0.oncvpsp.upf
ATOMIC_POSITIONS (angstrom)
Mo            6.5745484084        1.7878062295        2.8236430319
S             8.1767093388        0.8097040245        4.4345383526
S             8.1932330861        0.8112417448        1.2778834262
Mo            8.0951625650        4.4950569445        2.7178183935
S             6.4999092568        3.7224114877        4.3466606486
S             6.5533497983        3.5117375555        1.1212802280
Mo            6.4899816964        7.2184372840        2.6718844846
S             8.0817277282        6.3438709926        4.2424615633
S             8.0809176472        6.3047023165        1.0838629987
Mo            8.1606190483        9.9021804132        2.8434617610
S             6.4951675958        8.9429268145        4.3831055336
S             6.6179471996        9.0487112130        1.1399073026
Mo            3.4216596629        1.7469558507        2.7764711624
S             4.9751654908        0.8169412092        4.3505330927
S             5.0578337542        0.8462621088        1.2266584609
Mo            4.9797566813        4.5131780029        2.6328845491
S             3.4278416619        3.6715996857        4.2797095796
S             3.4379205809        3.5482286978        1.0583516820
Mo            3.4538617400        7.2163245385        2.6306768618
S             4.9832341929        6.3269322858        1.0372537311
Mo            5.0122639201        9.9016000513        2.7434009607
S             3.4709581171        8.9437512689        4.3255913121
S             3.4084291657        9.0649899838        1.0960682990
Mo            0.2960904871        1.7475095312        2.8494447089
S             1.8504622127        0.7926940068        4.3982094388
S             1.8608000343        0.8544259181        1.2094008542
Mo            1.8606913093        4.4956667613        2.6601973800
S             0.2722138493        3.6543988262        4.3375840995
S             0.2312312076        3.5272492264        1.1720178838
Mo            0.2711521510        7.2166460941        2.7016964279
S             1.9022382477        6.3127988350        4.2224441213
S             1.8622382145        6.3103438122        1.0445592831
Mo            1.8443466627        9.9401391536        2.7729462517
S             0.2959128993        9.0899978273        4.4138694658
S             0.2767713998        9.0435257146        1.1504007797
H             1.0507511111        4.8572888889        5.3434617610
